\ENCODING=ISO-8859-1
\Problem name: ../EQLPSolver/HiGHS-1-2-1/smallTests/codbt021.mps

Minimize
 OBJ: x0 + x1 + x2 + x3 + x4 + x5 + x6 + x7 + x8
Subject To
 R0:  x0 + x1 + x2 + x3 + x6 >= 1
 R1:  x0 + x1 + x2 + x4 + x7 >= 1
 R2:  x0 + x1 + x2 + x5 + x8 >= 1
 R3:  x0 + x3 + x4 + x5 + x6 >= 1
 R4:  x1 + x3 + x4 + x5 + x7 >= 1
 R5:  x2 + x3 + x4 + x5 + x8 >= 1
 R6:  x0 + x3 + x6 + x7 + x8 >= 1
 R7:  x1 + x4 + x6 + x7 + x8 >= 1
 R8:  x2 + x5 + x6 + x7 + x8 >= 1
 c10: 4 x0 + 4 x1 + 4 x2 + 4 x3 + 4 x4 + 4 x5 + 4 x6 + 4 x7 + 4 x8 >= 8
 c11: 2 x0 + 3 x1 + 3 x2 + 3 x3 + 3 x4 + 3 x5 + 3 x6 + 3 x7 + 3 x8 >= 6
 c12: 3 x0 + 4 x1 + 4 x2 + 4 x3 + 4 x4 + 4 x5 + 4 x6 + 4 x7 + 4 x8 >= 8
 c13: 5 x0 + 4 x1 + 4 x2 + 5 x3 + 4 x4 + 4 x5 + 5 x6 + 4 x7 + 4 x8 >= 9
 c14: 2 x0 + x1 + x2 + 2 x3 + x4 + x5 + 2 x6 + x7 + x8 >= 3
 c15: 4 x0 + 3 x1 + 3 x2 + 4 x3 + 3 x4 + 3 x5 + 4 x6 + 3 x7 + 3 x8 >= 7
 c16: 2 x0 + x1 + x2 + 2 x3 + x4 + x5 + 2 x6 + x7 + x8 >= 3
Bounds
 0 <= x0 <= 1
 0 <= x1 <= 1
 0 <= x2 <= 1
 0 <= x3 <= 1
 0 <= x4 <= 1
 0 <= x5 <= 1
 0 <= x6 <= 1
 0 <= x7 <= 1
 0 <= x8 <= 1
End
